(set-logic UF)
(declare-sort Nat_0 0)
(declare-fun Z_0 () Nat_0)
(declare-fun S_0 (Nat_0) Nat_0)
(declare-fun even_0 (Nat_0) Bool)
(assert (even_0 Z_0))
(assert (forall ((x_1 Nat_0))
	(=> (even_0 x_1) (even_0 (S_0 (S_0 x_1))))))
(assert (forall ((x_2 Nat_0))
	(=> (and (even_0 x_2) (even_0 (S_0 x_2))) false)))
(check-sat)
(get-model)
